
Gurobi 12.0.2 (win64) logging started Tue Oct  7 18:36:58 2025

Set parameter LogFile to value "C:\Ioana\_uni\honours\slp\algorithm\Main_files\results\paracetamol degradation (napqi formation)\Task_001_Sample007_irr_gurobi.log"
Gurobi Optimizer version 12.0.2 build v12.0.2rc0 (win64 - Windows 11.0 (26100.2))

CPU model: Intel(R) Core(TM) Ultra 5 125H, instruction set [SSE2|AVX|AVX2]
Thread count: 14 physical cores, 18 logical processors, using up to 18 threads

Non-default parameters:
TimeLimit  2200

Optimize a model with 47236 rows, 34510 columns and 146720 nonzeros
Model fingerprint: 0x85f1d4cf
Variable types: 17261 continuous, 17249 integer (17249 binary)
Coefficient statistics:
  Matrix range     [1e-04, 8e+04]
  Objective range  [1e-04, 9e-01]
  Bounds range     [1e+00, 1e+03]
  RHS range        [1e+00, 1e+00]
Presolve removed 30785 rows and 21556 columns
Presolve time: 0.32s
Presolved: 16451 rows, 12954 columns, 54685 nonzeros
Variable types: 6409 continuous, 6545 integer (6545 binary)
Found heuristic solution: objective 10.9541779

Root relaxation: objective 8.887020e-01, 2742 iterations, 0.17 seconds (0.43 work units)

    Nodes    |    Current Node    |     Objective Bounds      |     Work
 Expl Unexpl |  Obj  Depth IntInf | Incumbent    BestBd   Gap | It/Node Time

     0     0    0.88870    0    2   10.95418    0.88870  91.9%     -    0s
H    0     0                       1.7680459    0.88870  49.7%     -    0s
H    0     0                       0.9329258    0.88870  4.74%     -    0s
     0     0    0.88870    0    2    0.93293    0.88870  4.74%     -    0s

Explored 1 nodes (2742 simplex iterations) in 0.61 seconds (0.90 work units)
Thread count was 18 (of 18 available processors)

Solution count 3: 0.932926 1.76805 10.9542 

Optimal solution found (tolerance 1.00e-04)
Best objective 9.329257627931e-01, best bound 9.329257627931e-01, gap 0.0000%
